32      3       
15      19      12      
0       0       0       0       1       2       
5       0       1       0       1       3       
9       4       0       6       1       4       
8       0       3       1       1       5       
10      1       0       0       1       6       
7       0       3       8       2       7       14      
7       2       0       0       1       8       
3       4       12      0       2       9       11      
7       0       9       1       2       10      16      
8       1       0       1       2       12      19      
7       1       0       1       2       15      16      
6       1       0       4       1       13      
1       2       0       0       1       15      
5       5       0       0       1       16      
8       3       1       0       1       17      
8       0       0       4       1       17      
10      9       0       1       1       18      
9       0       9       0       1       20      
10      0       0       3       1       20      
1       0       1       0       1       21      
3       1       0       0       1       22      
1       5       0       1       2       23      26      
3       0       4       0       2       24      28      
5       0       5       1       1       25      
9       2       0       6       1       27      
5       0       1       2       1       28      
10      0       9       0       1       29      
4       15      0       5       1       29      
1       0       6       0       1       30      
6       0       1       0       1       31      
7       0       6       0       1       32      
0       0       0       0       0       
